c 
c MolecularSimulation 0.9.3
c Simulation written: Jan 13 2012 -- 15:17:57
c Test: Lipton
c Input: ./data/testCNF/SWEEP_R13_K3_N20_M256_S002.cnf
c 
s UNSATISFIABLE
v 0
c algorithmTime:  146
c solutionMemory: 0
c mixCount:       1046
c extractCount:   768
c appendCount:    40
c splitCount:     20
c spliceCount:    0
c purifyCount:    257
c 
